(set-info :smt-lib-version 2.0)
(set-logic NRA)
(set-info :source |Produced by tarski version 1.30|)
(set-info :license "https://creativecommons.org/licenses/by/4.0/")
(set-info :category "crafted")
(set-info :status unknown)
(declare-fun a () Real)
(declare-fun b () Real)
(assert (exists ((c Real)) (forall ((d Real)) (or (> (* (- 1) (+ (* a (- 1)) c)) 0) (>  (+ (* b (* c (- 1))) (* d a)) 0)))))
(check-sat)
